Problem:    
Rows:       313
Columns:    156 (156 integer, 52 binary)
Non-zeros:  3120
Status:     INTEGER OPTIMAL
Objective:  OBJ = 4.878528e+10 (MINimum)

   No.   Row name        Activity     Lower bound   Upper bound
------ ------------    ------------- ------------- -------------
     1 _C1                         0             0               
     2 _C10                        0                          32 
     3 _C100                       0                           1 
     4 _C101                       0             0               
     5 _C102                       0                          32 
     6 _C103                       0                           0 
     7 _C104                       0                           1 
     8 _C105                       0             0               
     9 _C106                       0                          32 
    10 _C107                       0                           0 
    11 _C108                       0                           1 
    12 _C109                       0             0               
    13 _C11                        0                           0 
    14 _C110                       0                          32 
    15 _C111                       0                           0 
    16 _C112                       0                           1 
    17 _C113                       0             0               
    18 _C114                       0                          32 
    19 _C115                       0                           0 
    20 _C116                       0                           1 
    21 _C117                       0             0               
    22 _C118                       0                          32 
    23 _C119                       0                           0 
    24 _C12                        0                           1 
    25 _C120                       0                           1 
    26 _C121                       0             0               
    27 _C122                       0                          32 
    28 _C123                       0                           0 
    29 _C124                       0                           1 
    30 _C125                       0             0               
    31 _C126                       0                          32 
    32 _C127                       0                           0 
    33 _C128                       0                           1 
    34 _C129                       0             0               
    35 _C13                        0             0               
    36 _C130                       0                          32 
    37 _C131                       0                           0 
    38 _C132                       0                           1 
    39 _C133                       0             0               
    40 _C134                       0                          32 
    41 _C135                       0                           0 
    42 _C136                       0                           1 
    43 _C137                       0             0               
    44 _C138                       0                          32 
    45 _C139                       0                           0 
    46 _C14                        0                          32 
    47 _C140                       0                           1 
    48 _C141                       0             0               
    49 _C142                       0                          32 
    50 _C143                       0                           0 
    51 _C144                       0                           1 
    52 _C145                       0             0               
    53 _C146                       0                          32 
    54 _C147                       0                           0 
    55 _C148                       0                           1 
    56 _C149                       0             0               
    57 _C15                        0                           0 
    58 _C150                       0                          32 
    59 _C151                       0                           0 
    60 _C152                       0                           1 
    61 _C153                       0             0               
    62 _C154                       0                          32 
    63 _C155                       0                           0 
    64 _C156                       0                           1 
    65 _C157                       0             0               
    66 _C158                       0                          32 
    67 _C159                       0                           0 
    68 _C16                        0                           1 
    69 _C160                       0                           1 
    70 _C161                       0             0               
    71 _C162                       0                          32 
    72 _C163                       0                           0 
    73 _C164                       0                           1 
    74 _C165                       0             0               
    75 _C166                       0                          32 
    76 _C167                       0                           0 
    77 _C168                       0                           1 
    78 _C169                       0             0               
    79 _C17                        0             0               
    80 _C170                       0                          32 
    81 _C171                       0                           0 
    82 _C172                       0                           1 
    83 _C173                       0             0               
    84 _C174                       0                          32 
    85 _C175                       0                           0 
    86 _C176                       0                           1 
    87 _C177                       0             0               
    88 _C178                       0                          32 
    89 _C179                       0                           0 
    90 _C18                        0                          32 
    91 _C180                       0                           1 
    92 _C181                       0             0               
    93 _C182                       0                          32 
    94 _C183                       0                           0 
    95 _C184                       0                           1 
    96 _C185                       0             0               
    97 _C186                       0                          32 
    98 _C187                       0                           0 
    99 _C188                       0                           1 
   100 _C189                       0             0               
   101 _C19                        0                           0 
   102 _C190                       0                          32 
   103 _C191                       0                           0 
   104 _C192                       0                           1 
   105 _C193                       0             0               
   106 _C194                       0                          32 
   107 _C195                       0                           0 
   108 _C196                       0                           1 
   109 _C197                       0             0               
   110 _C198                       0                          32 
   111 _C199                       0                           0 
   112 _C2                         0                          32 
   113 _C20                        0                           1 
   114 _C200                       0                           1 
   115 _C201                       0             0               
   116 _C202                       0                          32 
   117 _C203                       0                           0 
   118 _C204                       0                           1 
   119 _C205                       0             0               
   120 _C206                       0                          32 
   121 _C207                       0                           0 
   122 _C208                       0                           1 
   123 _C209                       0                       17928 
   124 _C21                        0             0               
   125 _C210                     442           442               
   126 _C211                    -442                           0 
   127 _C212                     137           137               
   128 _C213                    -137                           0 
   129 _C214                    6522          6522               
   130 _C215                   -6522                           0 
   131 _C216                    6072          6072               
   132 _C217                   -6072                           0 
   133 _C218                    3515          3515               
   134 _C219                   -3515                           0 
   135 _C22                        0                          32 
   136 _C220                      13            13               
   137 _C221                     -13                           0 
   138 _C222                       1             1               
   139 _C223                      -1                           0 
   140 _C224                       3             3               
   141 _C225                      -3                           0 
   142 _C226                       2             2               
   143 _C227                      -2                           0 
   144 _C228                       7             7               
   145 _C229                      -7                           0 
   146 _C23                        0                           0 
   147 _C230                      33            33               
   148 _C231                     -33                           0 
   149 _C232                      14            14               
   150 _C233                     -14                           0 
   151 _C234                       2             2               
   152 _C235                      -2                           0 
   153 _C236                       6             6               
   154 _C237                      -6                           0 
   155 _C238                      15            15               
   156 _C239                     -15                           0 
   157 _C24                        0                           1 
   158 _C240                     127           127               
   159 _C241                    -127                           0 
   160 _C242                       2             2               
   161 _C243                      -2                           0 
   162 _C244                      10            10               
   163 _C245                     -10                           0 
   164 _C246                     415           415               
   165 _C247                    -415                           0 
   166 _C248                       7             7               
   167 _C249                      -7                           0 
   168 _C25                        0             0               
   169 _C250                       4             4               
   170 _C251                      -4                           0 
   171 _C252                     111           111               
   172 _C253                    -111                           0 
   173 _C254                       1             1               
   174 _C255                      -1                           0 
   175 _C256                      43            43               
   176 _C257                     -43                           0 
   177 _C258                       4             4               
   178 _C259                      -4                           0 
   179 _C26                        0                          32 
   180 _C260                       1             1               
   181 _C261                      -1                           0 
   182 _C262                      57            57               
   183 _C263                     -57                           0 
   184 _C264                       2             2               
   185 _C265                      -2                           0 
   186 _C266                      53            53               
   187 _C267                     -53                           0 
   188 _C268                       1             1               
   189 _C269                      -1                           0 
   190 _C27                        0                           0 
   191 _C270                       3             3               
   192 _C271                      -3                           0 
   193 _C272                      89            89               
   194 _C273                     -89                           0 
   195 _C274                       1             1               
   196 _C275                      -1                           0 
   197 _C276                      37            37               
   198 _C277                     -37                           0 
   199 _C278                       3             3               
   200 _C279                      -3                           0 
   201 _C28                        0                           1 
   202 _C280                      50            50               
   203 _C281                     -50                           0 
   204 _C282                    2303          2303               
   205 _C283                   -2303                           0 
   206 _C284                       4             4               
   207 _C285                      -4                           0 
   208 _C286                      12            12               
   209 _C287                     -12                           0 
   210 _C288                     234           234               
   211 _C289                    -234                           0 
   212 _C29                        0             0               
   213 _C290                     926           926               
   214 _C291                    -926                           0 
   215 _C292                       2             2               
   216 _C293                      -2                           0 
   217 _C294                       1             1               
   218 _C295                      -1                           0 
   219 _C296                     395           395               
   220 _C297                    -395                           0 
   221 _C298                     140           140               
   222 _C299                    -140                           0 
   223 _C3                         0                           0 
   224 _C30                        0                          32 
   225 _C300                     102           102               
   226 _C301                    -102                           0 
   227 _C302                       6             6               
   228 _C303                      -6                           0 
   229 _C304                       1             1               
   230 _C305                      -1                           0 
   231 _C306                     198           198               
   232 _C307                    -198                           0 
   233 _C308                      74            74               
   234 _C309                     -74                           0 
   235 _C31                        0                           0 
   236 _C310                       3             3               
   237 _C311                      -3                           0 
   238 _C312                       3             3               
   239 _C313                      -3                           0 
   240 _C32                        0                           1 
   241 _C33                        0             0               
   242 _C34                        0                          32 
   243 _C35                        0                           0 
   244 _C36                        0                           1 
   245 _C37                        0             0               
   246 _C38                        0                          32 
   247 _C39                        0                           0 
   248 _C4                         0                           1 
   249 _C40                        0                           1 
   250 _C41                        0             0               
   251 _C42                        0                          32 
   252 _C43                        0                           0 
   253 _C44                        0                           1 
   254 _C45                        0             0               
   255 _C46                        0                          32 
   256 _C47                        0                           0 
   257 _C48                        0                           1 
   258 _C49                        0             0               
   259 _C5                         0             0               
   260 _C50                        0                          32 
   261 _C51                        0                           0 
   262 _C52                        0                           1 
   263 _C53                        0             0               
   264 _C54                        0                          32 
   265 _C55                        0                           0 
   266 _C56                        0                           1 
   267 _C57                        0             0               
   268 _C58                        0                          32 
   269 _C59                        0                           0 
   270 _C6                         0                          32 
   271 _C60                        0                           1 
   272 _C61                        0             0               
   273 _C62                        0                          32 
   274 _C63                        0                           0 
   275 _C64                        0                           1 
   276 _C65                        0             0               
   277 _C66                        0                          32 
   278 _C67                        0                           0 
   279 _C68                        0                           1 
   280 _C69                        0             0               
   281 _C7                         0                           0 
   282 _C70                        0                          32 
   283 _C71                        0                           0 
   284 _C72                        0                           1 
   285 _C73                        0             0               
   286 _C74                        0                          32 
   287 _C75                        0                           0 
   288 _C76                        0                           1 
   289 _C77                        0             0               
   290 _C78                        0                          32 
   291 _C79                        0                           0 
   292 _C8                         0                           1 
   293 _C80                        0                           1 
   294 _C81                        0             0               
   295 _C82                        0                          32 
   296 _C83                        0                           0 
   297 _C84                        0                           1 
   298 _C85                        0             0               
   299 _C86                        0                          32 
   300 _C87                        0                           0 
   301 _C88                        0                           1 
   302 _C89                        0             0               
   303 _C9                         0             0               
   304 _C90                        0                          32 
   305 _C91                        0                           0 
   306 _C92                        0                           1 
   307 _C93                        0             0               
   308 _C94                        0                          32 
   309 _C95                        0                           0 
   310 _C96                        0                           1 
   311 _C97                        0             0               
   312 _C98                        0                          32 
   313 _C99                        0                           0 

   No. Column name       Activity     Lower bound   Upper bound
------ ------------    ------------- ------------- -------------
     1 dispo_0      *            442                             
     2 dispo_1      *            137                             
     3 dispo_10     *             33                             
     4 dispo_11     *             14                             
     5 dispo_12     *              2                             
     6 dispo_13     *              6                             
     7 dispo_14     *             15                             
     8 dispo_15     *            127                             
     9 dispo_16     *              2                             
    10 dispo_17     *             10                             
    11 dispo_18     *            415                             
    12 dispo_19     *              7                             
    13 dispo_2      *           6522                             
    14 dispo_20     *              4                             
    15 dispo_21     *            111                             
    16 dispo_22     *              1                             
    17 dispo_23     *             43                             
    18 dispo_24     *              4                             
    19 dispo_25     *              1                             
    20 dispo_26     *             57                             
    21 dispo_27     *              2                             
    22 dispo_28     *             53                             
    23 dispo_29     *              1                             
    24 dispo_3      *           6072                             
    25 dispo_30     *              3                             
    26 dispo_31     *             89                             
    27 dispo_32     *              1                             
    28 dispo_33     *             37                             
    29 dispo_34     *              3                             
    30 dispo_35     *             50                             
    31 dispo_36     *           2303                             
    32 dispo_37     *              4                             
    33 dispo_38     *             12                             
    34 dispo_39     *            234                             
    35 dispo_4      *           3515                             
    36 dispo_40     *            926                             
    37 dispo_41     *              2                             
    38 dispo_42     *              1                             
    39 dispo_43     *            395                             
    40 dispo_44     *            140                             
    41 dispo_45     *            102                             
    42 dispo_46     *              6                             
    43 dispo_47     *              1                             
    44 dispo_48     *            198                             
    45 dispo_49     *             74                             
    46 dispo_5      *             13                             
    47 dispo_50     *              3                             
    48 dispo_51     *              3                             
    49 dispo_6      *              1                             
    50 dispo_7      *              3                             
    51 dispo_8      *              2                             
    52 dispo_9      *              7                             
    53 statut_0_0   *              0             0             1 
    54 statut_0_1   *              0             0             1 
    55 statut_0_10  *              0             0             1 
    56 statut_0_11  *              0             0             1 
    57 statut_0_12  *              0             0             1 
    58 statut_0_13  *              0             0             1 
    59 statut_0_14  *              0             0             1 
    60 statut_0_15  *              0             0             1 
    61 statut_0_16  *              0             0             1 
    62 statut_0_17  *              0             0             1 
    63 statut_0_18  *              0             0             1 
    64 statut_0_19  *              0             0             1 
    65 statut_0_2   *              0             0             1 
    66 statut_0_20  *              0             0             1 
    67 statut_0_21  *              0             0             1 
    68 statut_0_22  *              0             0             1 
    69 statut_0_23  *              0             0             1 
    70 statut_0_24  *              0             0             1 
    71 statut_0_25  *              0             0             1 
    72 statut_0_26  *              0             0             1 
    73 statut_0_27  *              0             0             1 
    74 statut_0_28  *              0             0             1 
    75 statut_0_29  *              0             0             1 
    76 statut_0_3   *              0             0             1 
    77 statut_0_30  *              0             0             1 
    78 statut_0_31  *              0             0             1 
    79 statut_0_32  *              0             0             1 
    80 statut_0_33  *              0             0             1 
    81 statut_0_34  *              0             0             1 
    82 statut_0_35  *              0             0             1 
    83 statut_0_36  *              0             0             1 
    84 statut_0_37  *              0             0             1 
    85 statut_0_38  *              0             0             1 
    86 statut_0_39  *              0             0             1 
    87 statut_0_4   *              0             0             1 
    88 statut_0_40  *              0             0             1 
    89 statut_0_41  *              0             0             1 
    90 statut_0_42  *              0             0             1 
    91 statut_0_43  *              0             0             1 
    92 statut_0_44  *              0             0             1 
    93 statut_0_45  *              0             0             1 
    94 statut_0_46  *              0             0             1 
    95 statut_0_47  *              0             0             1 
    96 statut_0_48  *              0             0             1 
    97 statut_0_49  *              0             0             1 
    98 statut_0_5   *              0             0             1 
    99 statut_0_50  *              0             0             1 
   100 statut_0_51  *              0             0             1 
   101 statut_0_6   *              0             0             1 
   102 statut_0_7   *              0             0             1 
   103 statut_0_8   *              0             0             1 
   104 statut_0_9   *              0             0             1 
   105 passagers_0_0
                    *              0                             
   106 passagers_0_2
                    *              0                             
   107 passagers_0_25
                    *              0                             
   108 passagers_0_26
                    *              0                             
   109 passagers_0_27
                    *              0                             
   110 passagers_0_28
                    *              0                             
   111 passagers_0_29
                    *              0                             
   112 passagers_0_30
                    *              0                             
   113 passagers_0_31
                    *              0                             
   114 passagers_0_32
                    *              0                             
   115 passagers_0_3
                    *              0                             
   116 passagers_0_33
                    *              0                             
   117 passagers_0_34
                    *              0                             
   118 passagers_0_35
                    *              0                             
   119 passagers_0_36
                    *              0                             
   120 passagers_0_37
                    *              0                             
   121 passagers_0_38
                    *              0                             
   122 passagers_0_39
                    *              0                             
   123 passagers_0_40
                    *              0                             
   124 passagers_0_41
                    *              0                             
   125 passagers_0_42
                    *              0                             
   126 passagers_0_4
                    *              0                             
   127 passagers_0_43
                    *              0                             
   128 passagers_0_44
                    *              0                             
   129 passagers_0_45
                    *              0                             
   130 passagers_0_46
                    *              0                             
   131 passagers_0_47
                    *              0                             
   132 passagers_0_48
                    *              0                             
   133 passagers_0_49
                    *              0                             
   134 passagers_0_50
                    *              0                             
   135 passagers_0_51
                    *              0                             
   136 passagers_0_1
                    *              0                             
   137 passagers_0_10
                    *              0                             
   138 passagers_0_11
                    *              0                             
   139 passagers_0_12
                    *              0                             
   140 passagers_0_13
                    *              0                             
   141 passagers_0_14
                    *              0                             
   142 passagers_0_15
                    *              0                             
   143 passagers_0_16
                    *              0                             
   144 passagers_0_17
                    *              0                             
   145 passagers_0_18
                    *              0                             
   146 passagers_0_19
                    *              0                             
   147 passagers_0_20
                    *              0                             
   148 passagers_0_21
                    *              0                             
   149 passagers_0_22
                    *              0                             
   150 passagers_0_23
                    *              0                             
   151 passagers_0_24
                    *              0                             
   152 passagers_0_5
                    *              0                             
   153 passagers_0_6
                    *              0                             
   154 passagers_0_7
                    *              0                             
   155 passagers_0_8
                    *              0                             
   156 passagers_0_9
                    *              0                             

Integer feasibility conditions:

KKT.PE: max.abs.err = 0.00e+00 on row 0
        max.rel.err = 0.00e+00 on row 0
        High quality

KKT.PB: max.abs.err = 0.00e+00 on row 0
        max.rel.err = 0.00e+00 on row 0
        High quality

End of output
